db/data/200541103427976154362040225030854615097.z3.out
-------------------
2500.132625975
